100
128
10
47
1
20
4
9
44
8
15
20
41
59
9
31
14
14
7
7
18
42
22
7
10
26
9
12
17
29
57
6
14
33
29
41
24
57
40
63
29
30
14
47
21
37
51
10
19
15
18
41
11
20
14
2
51
24
15
22
18
31
46
14
46
29
53
14
53
32
23
20
43
19
46
26
26
20
28
52
23
40
37
16
32
25
58
32
64
57
26
20
40
31
62
20
19
27
46
22
35
23